930990
19 4 26533
4 24 52566
24 22 45980
22 13 39393
13 28 6411
28 31 12751
31 25 7859
25 39 4093
39 37 6534
37 30 941
30 20 17244
20 32 24202
32 5 3290
5 26 32088
26 33 15458
33 12 3967
12 34 39715
34 23 31609
23 38 7449
38 29 745
29 18 39151
18 7 20722
7 36 11794
36 6 22446
6 9 47658
9 17 102410
17 14 42391
14 3 30026
3 16 71701
16 15 36816
15 8 26227
8 11 17581
11 35 5412
35 10 6355
10 1 6947
1 21 6578
21 2 11546
2 27 15288
27 40 17541
40 19 13572
